letting numberLocations be  32
letting costs be function (
(0,0) --> 0,
(0,1) --> 45,
(0,2) --> 15,
(0,3) --> 45,
(0,4) --> 36,
(0,5) --> 61,
(0,6) --> 24,
(0,7) --> 73,
(0,8) --> 64,
(0,9) --> 65,
(0,10) --> 55,
(0,11) --> 18,
(0,12) --> 41,
(0,13) --> 56,
(0,14) --> 39,
(0,15) --> 20,
(0,16) --> 39,
(0,17) --> 72,
(0,18) --> 19,
(0,19) --> 33,
(0,20) --> 31,
(0,21) --> 40,
(0,22) --> 8,
(0,23) --> 11,
(0,24) --> 22,
(0,25) --> 61,
(0,26) --> 65,
(0,27) --> 61,
(0,28) --> 17,
(0,29) --> 40,
(0,30) --> 61,
(0,31) --> 30,
(0,32) --> 40,
(1,0) --> 45,
(1,1) --> 0,
(1,2) --> 59,
(1,3) --> 58,
(1,4) --> 78,
(1,5) --> 100,
(1,6) --> 35,
(1,7) --> 117,
(1,8) --> 109,
(1,9) --> 80,
(1,10) --> 89,
(1,11) --> 28,
(1,12) --> 80,
(1,13) --> 101,
(1,14) --> 10,
(1,15) --> 51,
(1,16) --> 54,
(1,17) --> 94,
(1,18) --> 27,
(1,19) --> 19,
(1,20) --> 76,
(1,21) --> 9,
(1,22) --> 46,
(1,23) --> 35,
(1,24) --> 46,
(1,25) --> 98,
(1,26) --> 107,
(1,27) --> 98,
(1,28) --> 30,
(1,29) --> 30,
(1,30) --> 97,
(1,31) --> 17,
(1,32) --> 85,
(2,0) --> 15,
(2,1) --> 59,
(2,2) --> 0,
(2,3) --> 55,
(2,4) --> 31,
(2,5) --> 56,
(2,6) --> 31,
(2,7) --> 64,
(2,8) --> 54,
(2,9) --> 72,
(2,10) --> 55,
(2,11) --> 31,
(2,12) --> 39,
(2,13) --> 45,
(2,14) --> 52,
(2,15) --> 29,
(2,16) --> 49,
(2,17) --> 76,
(2,18) --> 34,
(2,19) --> 45,
(2,20) --> 22,
(2,21) --> 52,
(2,22) --> 19,
(2,23) --> 25,
(2,24) --> 24,
(2,25) --> 58,
(2,26) --> 57,
(2,27) --> 58,
(2,28) --> 32,
(2,29) --> 54,
(2,30) --> 59,
(2,31) --> 44,
(2,32) --> 26,
(3,0) --> 45,
(3,1) --> 58,
(3,2) --> 55,
(3,3) --> 0,
(3,4) --> 45,
(3,5) --> 55,
(3,6) --> 64,
(3,7) --> 78,
(3,8) --> 74,
(3,9) --> 23,
(3,10) --> 39,
(3,11) --> 49,
(3,12) --> 40,
(3,13) --> 72,
(3,14) --> 60,
(3,15) --> 26,
(3,16) --> 6,
(3,17) --> 36,
(3,18) --> 42,
(3,19) --> 61,
(3,20) --> 54,
(3,21) --> 60,
(3,22) --> 38,
(3,23) --> 41,
(3,24) --> 67,
(3,25) --> 50,
(3,26) --> 68,
(3,27) --> 50,
(3,28) --> 40,
(3,29) --> 28,
(3,30) --> 47,
(3,31) --> 44,
(3,32) --> 71,
(4,0) --> 36,
(4,1) --> 78,
(4,2) --> 31,
(4,3) --> 45,
(4,4) --> 0,
(4,5) --> 25,
(4,6) --> 60,
(4,7) --> 38,
(4,8) --> 31,
(4,9) --> 52,
(4,10) --> 26,
(4,11) --> 53,
(4,12) --> 9,
(4,13) --> 27,
(4,14) --> 74,
(4,15) --> 29,
(4,16) --> 41,
(4,17) --> 51,
(4,18) --> 52,
(4,19) --> 69,
(4,20) --> 13,
(4,21) --> 74,
(4,22) --> 33,
(4,23) --> 44,
(4,24) --> 55,
(4,25) --> 27,
(4,26) --> 29,
(4,27) --> 27,
(4,28) --> 49,
(4,29) --> 60,
(4,30) --> 28,
(4,31) --> 61,
(4,32) --> 29,
(5,0) --> 61,
(5,1) --> 100,
(5,2) --> 56,
(5,3) --> 55,
(5,4) --> 25,
(5,5) --> 0,
(5,6) --> 85,
(5,7) --> 25,
(5,8) --> 26,
(5,9) --> 51,
(5,10) --> 17,
(5,11) --> 77,
(5,12) --> 20,
(5,13) --> 30,
(5,14) --> 97,
(5,15) --> 49,
(5,16) --> 53,
(5,17) --> 41,
(5,18) --> 74,
(5,19) --> 93,
(5,20) --> 36,
(5,21) --> 97,
(5,22) --> 56,
(5,23) --> 67,
(5,24) --> 80,
(5,25) --> 7,
(5,26) --> 15,
(5,27) --> 6,
(5,28) --> 71,
(5,29) --> 77,
(5,30) --> 10,
(5,31) --> 82,
(5,32) --> 47,
(6,0) --> 24,
(6,1) --> 35,
(6,2) --> 31,
(6,3) --> 64,
(6,4) --> 60,
(6,5) --> 85,
(6,6) --> 0,
(6,7) --> 95,
(6,8) --> 85,
(6,9) --> 85,
(6,10) --> 79,
(6,11) --> 15,
(6,12) --> 65,
(6,13) --> 76,
(6,14) --> 26,
(6,15) --> 42,
(6,16) --> 57,
(6,17) --> 94,
(6,18) --> 23,
(6,19) --> 17,
(6,20) --> 53,
(6,21) --> 27,
(6,22) --> 30,
(6,23) --> 22,
(6,24) --> 11,
(6,25) --> 85,
(6,26) --> 88,
(6,27) --> 85,
(6,28) --> 24,
(6,29) --> 47,
(6,30) --> 85,
(6,31) --> 28,
(6,32) --> 56,
(7,0) --> 73,
(7,1) --> 117,
(7,2) --> 64,
(7,3) --> 78,
(7,4) --> 38,
(7,5) --> 25,
(7,6) --> 95,
(7,7) --> 0,
(7,8) --> 11,
(7,9) --> 75,
(7,10) --> 41,
(7,11) --> 91,
(7,12) --> 39,
(7,13) --> 21,
(7,14) --> 112,
(7,15) --> 67,
(7,16) --> 75,
(7,17) --> 65,
(7,18) --> 90,
(7,19) --> 106,
(7,20) --> 43,
(7,21) --> 112,
(7,22) --> 71,
(7,23) --> 82,
(7,24) --> 88,
(7,25) --> 31,
(7,26) --> 10,
(7,27) --> 30,
(7,28) --> 87,
(7,29) --> 98,
(7,30) --> 34,
(7,31) --> 99,
(7,32) --> 45,
(8,0) --> 64,
(8,1) --> 109,
(8,2) --> 54,
(8,3) --> 74,
(8,4) --> 31,
(8,5) --> 26,
(8,6) --> 85,
(8,7) --> 11,
(8,8) --> 0,
(8,9) --> 75,
(8,10) --> 41,
(8,11) --> 82,
(8,12) --> 35,
(8,13) --> 10,
(8,14) --> 103,
(8,15) --> 60,
(8,16) --> 71,
(8,17) --> 67,
(8,18) --> 82,
(8,19) --> 97,
(8,20) --> 33,
(8,21) --> 104,
(8,22) --> 62,
(8,23) --> 73,
(8,24) --> 78,
(8,25) --> 33,
(8,26) --> 12,
(8,27) --> 32,
(8,28) --> 79,
(8,29) --> 92,
(8,30) --> 36,
(8,31) --> 91,
(8,32) --> 34,
(9,0) --> 65,
(9,1) --> 80,
(9,2) --> 72,
(9,3) --> 23,
(9,4) --> 52,
(9,5) --> 51,
(9,6) --> 85,
(9,7) --> 75,
(9,8) --> 75,
(9,9) --> 0,
(9,10) --> 34,
(9,11) --> 71,
(9,12) --> 44,
(9,13) --> 75,
(9,14) --> 82,
(9,15) --> 45,
(9,16) --> 28,
(9,17) --> 17,
(9,18) --> 64,
(9,19) --> 84,
(9,20) --> 64,
(9,21) --> 82,
(9,22) --> 57,
(9,23) --> 63,
(9,24) --> 87,
(9,25) --> 44,
(9,26) --> 66,
(9,27) --> 45,
(9,28) --> 62,
(9,29) --> 50,
(9,30) --> 41,
(9,31) --> 66,
(9,32) --> 81,
(10,0) --> 55,
(10,1) --> 89,
(10,2) --> 55,
(10,3) --> 39,
(10,4) --> 26,
(10,5) --> 17,
(10,6) --> 79,
(10,7) --> 41,
(10,8) --> 41,
(10,9) --> 34,
(10,10) --> 0,
(10,11) --> 69,
(10,12) --> 17,
(10,13) --> 42,
(10,14) --> 87,
(10,15) --> 39,
(10,16) --> 38,
(10,17) --> 27,
(10,18) --> 65,
(10,19) --> 85,
(10,20) --> 39,
(10,21) --> 87,
(10,22) --> 49,
(10,23) --> 59,
(10,24) --> 77,
(10,25) --> 11,
(10,26) --> 31,
(10,27) --> 12,
(10,28) --> 62,
(10,29) --> 64,
(10,30) --> 8,
(10,31) --> 72,
(10,32) --> 54,
(11,0) --> 18,
(11,1) --> 28,
(11,2) --> 31,
(11,3) --> 49,
(11,4) --> 53,
(11,5) --> 77,
(11,6) --> 15,
(11,7) --> 91,
(11,8) --> 82,
(11,9) --> 71,
(11,10) --> 69,
(11,11) --> 0,
(11,12) --> 57,
(11,13) --> 74,
(11,14) --> 21,
(11,15) --> 30,
(11,16) --> 43,
(11,17) --> 81,
(11,18) --> 8,
(11,19) --> 16,
(11,20) --> 49,
(11,21) --> 22,
(11,22) --> 21,
(11,23) --> 10,
(11,24) --> 22,
(11,25) --> 76,
(11,26) --> 82,
(11,27) --> 76,
(11,28) --> 9,
(11,29) --> 33,
(11,30) --> 76,
(11,31) --> 15,
(11,32) --> 57,
(12,0) --> 41,
(12,1) --> 80,
(12,2) --> 39,
(12,3) --> 40,
(12,4) --> 9,
(12,5) --> 20,
(12,6) --> 65,
(12,7) --> 39,
(12,8) --> 35,
(12,9) --> 44,
(12,10) --> 17,
(12,11) --> 57,
(12,12) --> 0,
(12,13) --> 32,
(12,14) --> 76,
(12,15) --> 29,
(12,16) --> 37,
(12,17) --> 42,
(12,18) --> 54,
(12,19) --> 73,
(12,20) --> 23,
(12,21) --> 77,
(12,22) --> 36,
(12,23) --> 47,
(12,24) --> 61,
(12,25) --> 20,
(12,26) --> 29,
(12,27) --> 20,
(12,28) --> 51,
(12,29) --> 59,
(12,30) --> 20,
(12,31) --> 62,
(12,32) --> 38,
(13,0) --> 56,
(13,1) --> 101,
(13,2) --> 45,
(13,3) --> 72,
(13,4) --> 27,
(13,5) --> 30,
(13,6) --> 76,
(13,7) --> 21,
(13,8) --> 10,
(13,9) --> 75,
(13,10) --> 42,
(13,11) --> 74,
(13,12) --> 32,
(13,13) --> 0,
(13,14) --> 95,
(13,15) --> 55,
(13,16) --> 68,
(13,17) --> 69,
(13,18) --> 74,
(13,19) --> 89,
(13,20) --> 25,
(13,21) --> 96,
(13,22) --> 55,
(13,23) --> 66,
(13,24) --> 69,
(13,25) --> 36,
(13,26) --> 19,
(13,27) --> 35,
(13,28) --> 71,
(13,29) --> 86,
(13,30) --> 39,
(13,31) --> 84,
(13,32) --> 24,
(14,0) --> 39,
(14,1) --> 10,
(14,2) --> 52,
(14,3) --> 60,
(14,4) --> 74,
(14,5) --> 97,
(14,6) --> 26,
(14,7) --> 112,
(14,8) --> 103,
(14,9) --> 82,
(14,10) --> 87,
(14,11) --> 21,
(14,12) --> 76,
(14,13) --> 95,
(14,14) --> 0,
(14,15) --> 48,
(14,16) --> 55,
(14,17) --> 95,
(14,18) --> 22,
(14,19) --> 9,
(14,20) --> 70,
(14,21) --> 1,
(14,22) --> 41,
(14,23) --> 30,
(14,24) --> 36,
(14,25) --> 95,
(14,26) --> 103,
(14,27) --> 96,
(14,28) --> 26,
(14,29) --> 34,
(14,30) --> 94,
(14,31) --> 16,
(14,32) --> 78,
(15,0) --> 20,
(15,1) --> 51,
(15,2) --> 29,
(15,3) --> 26,
(15,4) --> 29,
(15,5) --> 49,
(15,6) --> 42,
(15,7) --> 67,
(15,8) --> 60,
(15,9) --> 45,
(15,10) --> 39,
(15,11) --> 30,
(15,12) --> 29,
(15,13) --> 55,
(15,14) --> 48,
(15,15) --> 0,
(15,16) --> 20,
(15,17) --> 53,
(15,18) --> 25,
(15,19) --> 45,
(15,20) --> 32,
(15,21) --> 48,
(15,22) --> 12,
(15,23) --> 20,
(15,24) --> 42,
(15,25) --> 47,
(15,26) --> 57,
(15,27) --> 48,
(15,28) --> 22,
(15,29) --> 32,
(15,30) --> 47,
(15,31) --> 33,
(15,32) --> 47,
(16,0) --> 39,
(16,1) --> 54,
(16,2) --> 49,
(16,3) --> 6,
(16,4) --> 41,
(16,5) --> 53,
(16,6) --> 57,
(16,7) --> 75,
(16,8) --> 71,
(16,9) --> 28,
(16,10) --> 38,
(16,11) --> 43,
(16,12) --> 37,
(16,13) --> 68,
(16,14) --> 55,
(16,15) --> 20,
(16,16) --> 0,
(16,17) --> 40,
(16,18) --> 36,
(16,19) --> 56,
(16,20) --> 49,
(16,21) --> 55,
(16,22) --> 31,
(16,23) --> 35,
(16,24) --> 60,
(16,25) --> 49,
(16,26) --> 65,
(16,27) --> 50,
(16,28) --> 34,
(16,29) --> 26,
(16,30) --> 47,
(16,31) --> 39,
(16,32) --> 65,
(17,0) --> 72,
(17,1) --> 94,
(17,2) --> 76,
(17,3) --> 36,
(17,4) --> 51,
(17,5) --> 41,
(17,6) --> 94,
(17,7) --> 65,
(17,8) --> 67,
(17,9) --> 17,
(17,10) --> 27,
(17,11) --> 81,
(17,12) --> 42,
(17,13) --> 69,
(17,14) --> 95,
(17,15) --> 53,
(17,16) --> 40,
(17,17) --> 0,
(17,18) --> 75,
(17,19) --> 95,
(17,20) --> 64,
(17,21) --> 95,
(17,22) --> 64,
(17,23) --> 72,
(17,24) --> 94,
(17,25) --> 34,
(17,26) --> 56,
(17,27) --> 35,
(17,28) --> 73,
(17,29) --> 65,
(17,30) --> 31,
(17,31) --> 79,
(17,32) --> 80,
(18,0) --> 19,
(18,1) --> 27,
(18,2) --> 34,
(18,3) --> 42,
(18,4) --> 52,
(18,5) --> 74,
(18,6) --> 23,
(18,7) --> 90,
(18,8) --> 82,
(18,9) --> 64,
(18,10) --> 65,
(18,11) --> 8,
(18,12) --> 54,
(18,13) --> 74,
(18,14) --> 22,
(18,15) --> 25,
(18,16) --> 36,
(18,17) --> 75,
(18,18) --> 0,
(18,19) --> 20,
(18,20) --> 50,
(18,21) --> 23,
(18,22) --> 19,
(18,23) --> 9,
(18,24) --> 29,
(18,25) --> 73,
(18,26) --> 81,
(18,27) --> 73,
(18,28) --> 3,
(18,29) --> 25,
(18,30) --> 72,
(18,31) --> 10,
(18,32) --> 60,
(19,0) --> 33,
(19,1) --> 19,
(19,2) --> 45,
(19,3) --> 61,
(19,4) --> 69,
(19,5) --> 93,
(19,6) --> 17,
(19,7) --> 106,
(19,8) --> 97,
(19,9) --> 84,
(19,10) --> 85,
(19,11) --> 16,
(19,12) --> 73,
(19,13) --> 89,
(19,14) --> 9,
(19,15) --> 45,
(19,16) --> 56,
(19,17) --> 95,
(19,18) --> 20,
(19,19) --> 0,
(19,20) --> 64,
(19,21) --> 10,
(19,22) --> 37,
(19,23) --> 26,
(19,24) --> 28,
(19,25) --> 92,
(19,26) --> 98,
(19,27) --> 92,
(19,28) --> 23,
(19,29) --> 38,
(19,30) --> 91,
(19,31) --> 18,
(19,32) --> 71,
(20,0) --> 31,
(20,1) --> 76,
(20,2) --> 22,
(20,3) --> 54,
(20,4) --> 13,
(20,5) --> 36,
(20,6) --> 53,
(20,7) --> 43,
(20,8) --> 33,
(20,9) --> 64,
(20,10) --> 39,
(20,11) --> 49,
(20,12) --> 23,
(20,13) --> 25,
(20,14) --> 70,
(20,15) --> 32,
(20,16) --> 49,
(20,17) --> 64,
(20,18) --> 50,
(20,19) --> 64,
(20,20) --> 0,
(20,21) --> 71,
(20,22) --> 31,
(20,23) --> 41,
(20,24) --> 46,
(20,25) --> 39,
(20,26) --> 36,
(20,27) --> 39,
(20,28) --> 47,
(20,29) --> 64,
(20,30) --> 41,
(20,31) --> 60,
(20,32) --> 17,
(21,0) --> 40,
(21,1) --> 9,
(21,2) --> 52,
(21,3) --> 60,
(21,4) --> 74,
(21,5) --> 97,
(21,6) --> 27,
(21,7) --> 112,
(21,8) --> 104,
(21,9) --> 82,
(21,10) --> 87,
(21,11) --> 22,
(21,12) --> 77,
(21,13) --> 96,
(21,14) --> 1,
(21,15) --> 48,
(21,16) --> 55,
(21,17) --> 95,
(21,18) --> 23,
(21,19) --> 10,
(21,20) --> 71,
(21,21) --> 0,
(21,22) --> 42,
(21,23) --> 31,
(21,24) --> 37,
(21,25) --> 96,
(21,26) --> 103,
(21,27) --> 96,
(21,28) --> 26,
(21,29) --> 34,
(21,30) --> 95,
(21,31) --> 16,
(21,32) --> 79,
(22,0) --> 8,
(22,1) --> 46,
(22,2) --> 19,
(22,3) --> 38,
(22,4) --> 33,
(22,5) --> 56,
(22,6) --> 30,
(22,7) --> 71,
(22,8) --> 62,
(22,9) --> 57,
(22,10) --> 49,
(22,11) --> 21,
(22,12) --> 36,
(22,13) --> 55,
(22,14) --> 41,
(22,15) --> 12,
(22,16) --> 31,
(22,17) --> 64,
(22,18) --> 19,
(22,19) --> 37,
(22,20) --> 31,
(22,21) --> 42,
(22,22) --> 0,
(22,23) --> 11,
(22,24) --> 30,
(22,25) --> 56,
(22,26) --> 62,
(22,27) --> 56,
(22,28) --> 16,
(22,29) --> 35,
(22,30) --> 55,
(22,31) --> 29,
(22,32) --> 42,
(23,0) --> 11,
(23,1) --> 35,
(23,2) --> 25,
(23,3) --> 41,
(23,4) --> 44,
(23,5) --> 67,
(23,6) --> 22,
(23,7) --> 82,
(23,8) --> 73,
(23,9) --> 63,
(23,10) --> 59,
(23,11) --> 10,
(23,12) --> 47,
(23,13) --> 66,
(23,14) --> 30,
(23,15) --> 20,
(23,16) --> 35,
(23,17) --> 72,
(23,18) --> 9,
(23,19) --> 26,
(23,20) --> 41,
(23,21) --> 31,
(23,22) --> 11,
(23,23) --> 0,
(23,24) --> 26,
(23,25) --> 66,
(23,26) --> 73,
(23,27) --> 66,
(23,28) --> 6,
(23,29) --> 30,
(23,30) --> 66,
(23,31) --> 19,
(23,32) --> 51,
(24,0) --> 22,
(24,1) --> 46,
(24,2) --> 24,
(24,3) --> 67,
(24,4) --> 55,
(24,5) --> 80,
(24,6) --> 11,
(24,7) --> 88,
(24,8) --> 78,
(24,9) --> 87,
(24,10) --> 77,
(24,11) --> 22,
(24,12) --> 61,
(24,13) --> 69,
(24,14) --> 36,
(24,15) --> 42,
(24,16) --> 60,
(24,17) --> 94,
(24,18) --> 29,
(24,19) --> 28,
(24,20) --> 46,
(24,21) --> 37,
(24,22) --> 30,
(24,23) --> 26,
(24,24) --> 0,
(24,25) --> 81,
(24,26) --> 81,
(24,27) --> 81,
(24,28) --> 30,
(24,29) --> 54,
(24,30) --> 82,
(24,31) --> 36,
(24,32) --> 47,
(25,0) --> 61,
(25,1) --> 98,
(25,2) --> 58,
(25,3) --> 50,
(25,4) --> 27,
(25,5) --> 7,
(25,6) --> 85,
(25,7) --> 31,
(25,8) --> 33,
(25,9) --> 44,
(25,10) --> 11,
(25,11) --> 76,
(25,12) --> 20,
(25,13) --> 36,
(25,14) --> 95,
(25,15) --> 47,
(25,16) --> 49,
(25,17) --> 34,
(25,18) --> 73,
(25,19) --> 92,
(25,20) --> 39,
(25,21) --> 96,
(25,22) --> 56,
(25,23) --> 66,
(25,24) --> 81,
(25,25) --> 0,
(25,26) --> 22,
(25,27) --> 1,
(25,28) --> 70,
(25,29) --> 74,
(25,30) --> 3,
(25,31) --> 80,
(25,32) --> 52,
(26,0) --> 65,
(26,1) --> 107,
(26,2) --> 57,
(26,3) --> 68,
(26,4) --> 29,
(26,5) --> 15,
(26,6) --> 88,
(26,7) --> 10,
(26,8) --> 12,
(26,9) --> 66,
(26,10) --> 31,
(26,11) --> 82,
(26,12) --> 29,
(26,13) --> 19,
(26,14) --> 103,
(26,15) --> 57,
(26,16) --> 65,
(26,17) --> 56,
(26,18) --> 81,
(26,19) --> 98,
(26,20) --> 36,
(26,21) --> 103,
(26,22) --> 62,
(26,23) --> 73,
(26,24) --> 81,
(26,25) --> 22,
(26,26) --> 0,
(26,27) --> 21,
(26,28) --> 78,
(26,29) --> 88,
(26,30) --> 25,
(26,31) --> 90,
(26,32) --> 41,
(27,0) --> 61,
(27,1) --> 98,
(27,2) --> 58,
(27,3) --> 50,
(27,4) --> 27,
(27,5) --> 6,
(27,6) --> 85,
(27,7) --> 30,
(27,8) --> 32,
(27,9) --> 45,
(27,10) --> 12,
(27,11) --> 76,
(27,12) --> 20,
(27,13) --> 35,
(27,14) --> 96,
(27,15) --> 48,
(27,16) --> 50,
(27,17) --> 35,
(27,18) --> 73,
(27,19) --> 92,
(27,20) --> 39,
(27,21) --> 96,
(27,22) --> 56,
(27,23) --> 66,
(27,24) --> 81,
(27,25) --> 1,
(27,26) --> 21,
(27,27) --> 0,
(27,28) --> 70,
(27,29) --> 74,
(27,30) --> 4,
(27,31) --> 81,
(27,32) --> 51,
(28,0) --> 17,
(28,1) --> 30,
(28,2) --> 32,
(28,3) --> 40,
(28,4) --> 49,
(28,5) --> 71,
(28,6) --> 24,
(28,7) --> 87,
(28,8) --> 79,
(28,9) --> 62,
(28,10) --> 62,
(28,11) --> 9,
(28,12) --> 51,
(28,13) --> 71,
(28,14) --> 26,
(28,15) --> 22,
(28,16) --> 34,
(28,17) --> 73,
(28,18) --> 3,
(28,19) --> 23,
(28,20) --> 47,
(28,21) --> 26,
(28,22) --> 16,
(28,23) --> 6,
(28,24) --> 30,
(28,25) --> 70,
(28,26) --> 78,
(28,27) --> 70,
(28,28) --> 0,
(28,29) --> 25,
(28,30) --> 69,
(28,31) --> 13,
(28,32) --> 57,
(29,0) --> 40,
(29,1) --> 30,
(29,2) --> 54,
(29,3) --> 28,
(29,4) --> 60,
(29,5) --> 77,
(29,6) --> 47,
(29,7) --> 98,
(29,8) --> 92,
(29,9) --> 50,
(29,10) --> 64,
(29,11) --> 33,
(29,12) --> 59,
(29,13) --> 86,
(29,14) --> 34,
(29,15) --> 32,
(29,16) --> 26,
(29,17) --> 65,
(29,18) --> 25,
(29,19) --> 38,
(29,20) --> 64,
(29,21) --> 34,
(29,22) --> 35,
(29,23) --> 30,
(29,24) --> 54,
(29,25) --> 74,
(29,26) --> 88,
(29,27) --> 74,
(29,28) --> 25,
(29,29) --> 0,
(29,30) --> 72,
(29,31) --> 21,
(29,32) --> 77,
(30,0) --> 61,
(30,1) --> 97,
(30,2) --> 59,
(30,3) --> 47,
(30,4) --> 28,
(30,5) --> 10,
(30,6) --> 85,
(30,7) --> 34,
(30,8) --> 36,
(30,9) --> 41,
(30,10) --> 8,
(30,11) --> 76,
(30,12) --> 20,
(30,13) --> 39,
(30,14) --> 94,
(30,15) --> 47,
(30,16) --> 47,
(30,17) --> 31,
(30,18) --> 72,
(30,19) --> 91,
(30,20) --> 41,
(30,21) --> 95,
(30,22) --> 55,
(30,23) --> 66,
(30,24) --> 82,
(30,25) --> 3,
(30,26) --> 25,
(30,27) --> 4,
(30,28) --> 69,
(30,29) --> 72,
(30,30) --> 0,
(30,31) --> 79,
(30,32) --> 54,
(31,0) --> 30,
(31,1) --> 17,
(31,2) --> 44,
(31,3) --> 44,
(31,4) --> 61,
(31,5) --> 82,
(31,6) --> 28,
(31,7) --> 99,
(31,8) --> 91,
(31,9) --> 66,
(31,10) --> 72,
(31,11) --> 15,
(31,12) --> 62,
(31,13) --> 84,
(31,14) --> 16,
(31,15) --> 33,
(31,16) --> 39,
(31,17) --> 79,
(31,18) --> 10,
(31,19) --> 18,
(31,20) --> 60,
(31,21) --> 16,
(31,22) --> 29,
(31,23) --> 19,
(31,24) --> 36,
(31,25) --> 80,
(31,26) --> 90,
(31,27) --> 81,
(31,28) --> 13,
(31,29) --> 21,
(31,30) --> 79,
(31,31) --> 0,
(31,32) --> 70,
(32,0) --> 40,
(32,1) --> 85,
(32,2) --> 26,
(32,3) --> 71,
(32,4) --> 29,
(32,5) --> 47,
(32,6) --> 56,
(32,7) --> 45,
(32,8) --> 34,
(32,9) --> 81,
(32,10) --> 54,
(32,11) --> 57,
(32,12) --> 38,
(32,13) --> 24,
(32,14) --> 78,
(32,15) --> 47,
(32,16) --> 65,
(32,17) --> 80,
(32,18) --> 60,
(32,19) --> 71,
(32,20) --> 17,
(32,21) --> 79,
(32,22) --> 42,
(32,23) --> 51,
(32,24) --> 47,
(32,25) --> 52,
(32,26) --> 41,
(32,27) --> 51,
(32,28) --> 57,
(32,29) --> 77,
(32,30) --> 54,
(32,31) --> 70,
(32,32) --> 0)
letting orderWeights be function (
1 --> 5
,
2 --> 23
,
3 --> 14
,
4 --> 13
,
5 --> 8
,
6 --> 18
,
7 --> 19
,
8 --> 10
,
9 --> 18
,
10 --> 20
,
11 --> 5
,
12 --> 9
,
13 --> 23
,
14 --> 9
,
15 --> 18
,
16 --> 10
,
17 --> 24
,
18 --> 13
,
19 --> 14
,
20 --> 8
,
21 --> 10
,
22 --> 19
,
23 --> 14
,
24 --> 13
,
25 --> 14
,
26 --> 2
,
27 --> 23
,
28 --> 15
,
29 --> 8
,
30 --> 20
,
31 --> 24
,
32 --> 3
)
letting vehicleCapacity be 100
